NAME          DCAP_2_3_3_500_SS392
ROWS
 N  OBJ
 L  CON1
 L  CON2
 L  CON3
 L  CON4
 L  CON5
 L  CON6
 L  CON7
 L  CON8
 L  CON9
 L  CON10
 L  CON11
 L  CON12
 E  CON13
 E  CON14
 E  CON15
 E  CON16
 E  CON17
 E  CON18
 E  CON19
 E  CON20
 E  CON21
COLUMNS
    x[1,1]    OBJ       6.180167      CON1      1.000000    
    x[1,1]    CON7      -1.000000     CON8      -1.000000   
    x[1,1]    CON9      -1.000000   
    x[1,2]    OBJ       6.563535      CON2      1.000000    
    x[1,2]    CON8      -1.000000     CON9      -1.000000   
    x[1,3]    OBJ       7.443064      CON3      1.000000    
    x[1,3]    CON9      -1.000000   
    x[2,1]    OBJ       6.732585      CON4      1.000000    
    x[2,1]    CON10     -1.000000     CON11     -1.000000   
    x[2,1]    CON12     -1.000000   
    x[2,2]    OBJ       5.039546      CON5      1.000000    
    x[2,2]    CON11     -1.000000     CON12     -1.000000   
    x[2,3]    OBJ       6.054841      CON6      1.000000    
    x[2,3]    CON12     -1.000000   
    MARKER    'MARKER'                'INTORG'
    u[1,1]    OBJ       48.076654     CON1      -1.000000   
    u[1,2]    OBJ       20.066487     CON2      -1.000000   
    u[1,3]    OBJ       32.230043     CON3      -1.000000   
    u[2,1]    OBJ       49.996186     CON4      -1.000000   
    u[2,2]    OBJ       49.466655     CON5      -1.000000   
    u[2,3]    OBJ       27.484319     CON6      -1.000000   
    y[1,1,1]  OBJ       6.772552      CON7      0.929788    
    y[1,1,1]  CON13     1.000000    
    y[1,1,2]  OBJ       7.530176      CON8      1.057371    
    y[1,1,2]  CON14     1.000000    
    y[1,1,3]  OBJ       5.188513      CON9      0.939065    
    y[1,1,3]  CON15     1.000000    
    y[1,2,1]  OBJ       5.781159      CON7      1.179886    
    y[1,2,1]  CON16     1.000000    
    y[1,2,2]  OBJ       9.135761      CON8      0.746535    
    y[1,2,2]  CON17     1.000000    
    y[1,2,3]  OBJ       9.320751      CON9      0.712341    
    y[1,2,3]  CON18     1.000000    
    y[1,3,1]  OBJ       9.307505      CON7      1.145165    
    y[1,3,1]  CON19     1.000000    
    y[1,3,2]  OBJ       8.420413      CON8      0.749189    
    y[1,3,2]  CON20     1.000000    
    y[1,3,3]  OBJ       7.051098      CON9      0.583924    
    y[1,3,3]  CON21     1.000000    
    y[2,1,1]  OBJ       7.381755      CON10     0.929788    
    y[2,1,1]  CON13     1.000000    
    y[2,1,2]  OBJ       5.199821      CON11     1.057371    
    y[2,1,2]  CON14     1.000000    
    y[2,1,3]  OBJ       7.240305      CON12     0.939065    
    y[2,1,3]  CON15     1.000000    
    y[2,2,1]  OBJ       6.289167      CON10     1.179886    
    y[2,2,1]  CON16     1.000000    
    y[2,2,2]  OBJ       6.096684      CON11     0.746535    
    y[2,2,2]  CON17     1.000000    
    y[2,2,3]  OBJ       9.147683      CON12     0.712341    
    y[2,2,3]  CON18     1.000000    
    y[2,3,1]  OBJ       6.134084      CON10     1.145165    
    y[2,3,1]  CON19     1.000000    
    y[2,3,2]  OBJ       7.206935      CON11     0.749189    
    y[2,3,2]  CON20     1.000000    
    y[2,3,3]  OBJ       6.714836      CON12     0.583924    
    y[2,3,3]  CON21     1.000000    
    z[1,1]    OBJ       703.606544    CON13     1.000000    
    z[1,2]    OBJ       796.000616    CON14     1.000000    
    z[1,3]    OBJ       904.739413    CON15     1.000000    
    z[2,1]    OBJ       557.055705    CON16     1.000000    
    z[2,2]    OBJ       537.144330    CON17     1.000000    
    z[2,3]    OBJ       745.284919    CON18     1.000000    
    z[3,1]    OBJ       922.294280    CON19     1.000000    
    z[3,2]    OBJ       784.145413    CON20     1.000000    
    z[3,3]    OBJ       744.405204    CON21     1.000000    
    MARKER    'MARKER'                 'INTEND'
RHS
    RHS       CON1      -0.000000     CON2      -0.000000   
    RHS       CON3      -0.000000     CON4      -0.000000   
    RHS       CON5      -0.000000     CON6      -0.000000   
    RHS       CON7      -0.000000     CON8      -0.000000   
    RHS       CON9      -0.000000     CON10     -0.000000   
    RHS       CON11     -0.000000     CON12     -0.000000   
    RHS       CON13     1.000000      CON14     1.000000    
    RHS       CON15     1.000000      CON16     1.000000    
    RHS       CON17     1.000000      CON18     1.000000    
    RHS       CON19     1.000000      CON20     1.000000    
    RHS       CON21     1.000000    
BOUNDS
 BV BOUND     u[1,1]  
 BV BOUND     u[1,2]  
 BV BOUND     u[1,3]  
 BV BOUND     u[2,1]  
 BV BOUND     u[2,2]  
 BV BOUND     u[2,3]  
 BV BOUND     y[1,1,1]
 BV BOUND     y[1,1,2]
 BV BOUND     y[1,1,3]
 BV BOUND     y[1,2,1]
 BV BOUND     y[1,2,2]
 BV BOUND     y[1,2,3]
 BV BOUND     y[1,3,1]
 BV BOUND     y[1,3,2]
 BV BOUND     y[1,3,3]
 BV BOUND     y[2,1,1]
 BV BOUND     y[2,1,2]
 BV BOUND     y[2,1,3]
 BV BOUND     y[2,2,1]
 BV BOUND     y[2,2,2]
 BV BOUND     y[2,2,3]
 BV BOUND     y[2,3,1]
 BV BOUND     y[2,3,2]
 BV BOUND     y[2,3,3]
 BV BOUND     z[1,1]  
 BV BOUND     z[1,2]  
 BV BOUND     z[1,3]  
 BV BOUND     z[2,1]  
 BV BOUND     z[2,2]  
 BV BOUND     z[2,3]  
 BV BOUND     z[3,1]  
 BV BOUND     z[3,2]  
 BV BOUND     z[3,3]  
ENDATA
